\ LP format - for model browsing. Use MPS format to capture full model detail.
Minimize
  zeta_sub_2
Subject To
 R0: zeta_sub_2 + 1.702203896e+09 y_2_0 + 1.737492448e+09 y_2_1
   - 2.127061532e+09 y_2_2 + 1.49306655e+09 y_2_3 - 1.827321918e+09 y_2_4
   + 9.72434931e+08 y_2_5 - 1.097685843e+09 y_2_6 + 1.462367785e+09 y_2_7
   - 1.935315564e+09 y_2_8 + 1.597081448e+09 y_2_9 - 1.397926874e+09 y_2_10
   + 1.314101621e+09 y_2_11 - 1.067055135e+09 y_2_12
   - 1.002736284e+09 y_2_13 + 9.46768025e+08 y_2_14 + 7.70740305e+08 y_2_15
   - 1.755858975e+09 y_2_16 - 1.435280453e+09 y_2_17
   - 1.39148516e+09 y_2_18 + 1.218137341e+09 y_2_19 + 7.44016614e+08 y_2_20
   - 1.636348627e+09 y_2_21 + 1.354110336e+09 y_2_22
   + 1.853964725e+09 y_2_23 - 1.496803653e+09 y_2_24
   - 1.693250657e+09 y_2_25 + 7.06541395e+08 y_2_26 - 1.43771842e+09 y_2_27
   + 2.118301765e+09 y_2_28 + 8.6370227e+08 y_2_29 - 1.184691562e+09 y_2_30
   - 1.427832272e+09 y_2_31 - 9.24321991e+08 y_2_32
   - 1.342345106e+09 y_2_33 + 9.77318812e+08 y_2_34
   - 1.332100253e+09 y_2_35 - 1.640131525e+09 y_2_36
   - 1.411067102e+09 y_2_37 + 9.19955845e+08 y_2_38 + 6.00975428e+08 y_2_39
   - 1.412211107e+09 y_2_40 + 8.14341964e+08 y_2_41
   + 1.407150093e+09 y_2_42 - 1.853044776e+09 y_2_43 - 1.1435331e+09 y_2_44
   - 2.144497248e+09 y_2_45 - 1.965199535e+09 y_2_46
   - 1.052038698e+09 y_2_47 + 7.92442347e+08 y_2_48
   + 1.886260604e+09 y_2_49 - 1.429321795e+09 y_2_50
   + 6.75113014e+08 y_2_51 - 1.298822456e+09 y_2_52
   - 1.319960456e+09 y_2_53 + 6.32025072e+08 y_2_54 + 1.84525879e+09 y_2_55
   - 1.801760515e+09 y_2_56 + 7.82815355e+08 y_2_57
   - 1.763412513e+09 y_2_58 + 1.270937731e+09 y_2_59
   - 2.031909098e+09 y_2_60 - 1.049830698e+09 y_2_61 + 7.2462752e+08 y_2_62
   - 1.27067622e+09 y_2_63 + 1.673785104e+09 y_2_64 + 7.83540438e+08 y_2_65
   + 6.85043683e+08 y_2_66 + 1.105746648e+09 y_2_67
   - 1.206897901e+09 y_2_68 + 1.837599823e+09 y_2_69
   + 8.45386913e+08 y_2_70 >= 0
 R1: y_2_29 + y_2_30 + y_2_31 + y_2_32 + y_2_33 + y_2_34 + y_2_35 + y_2_36
   + y_2_37 + y_2_38 = 1
 R2: y_2_53 + y_2_54 + y_2_55 + y_2_56 + y_2_57 + y_2_58 + y_2_59 + y_2_60
   = 0
 R3: - y_2_29 + y_2_39 + y_2_40 + y_2_41 + y_2_42 + y_2_43 + y_2_44
   + y_2_45 + y_2_46 + y_2_47 = 0
 R4: y_2_6 + y_2_7 + y_2_8 + y_2_9 + y_2_10 + y_2_11 + y_2_12 + y_2_13
   + y_2_14 - y_2_36 = 0
 R5: - y_2_6 + y_2_15 + y_2_16 + y_2_17 + y_2_18 + y_2_19 + y_2_20 - y_2_34
   - y_2_42 - y_2_59 = 0
 R6: - y_2_12 - y_2_30 - y_2_40 + y_2_48 + y_2_49 + y_2_50 + y_2_51
   + y_2_52 - y_2_56 = 0
 R7: y_2_0 + y_2_1 + y_2_2 + y_2_3 + y_2_4 - y_2_10 - y_2_38 - y_2_46
   - y_2_53 = 0
 R8: - y_2_33 - y_2_43 + y_2_63 + y_2_64 + y_2_65 = 0
 R9: - y_2_1 - y_2_17 - y_2_52 - y_2_57 + y_2_66 + y_2_67 + y_2_68 + y_2_69
   = 0
 R10: - y_2_4 - y_2_9 - y_2_15 + y_2_21 + y_2_22 + y_2_23 - y_2_37 - y_2_45
   - y_2_50 = 0
 R11: - y_2_3 - y_2_7 - y_2_21 + y_2_26 + y_2_27 - y_2_35 - y_2_48 - y_2_63
   - y_2_68 = 0
 R12: - y_2_13 - y_2_32 - y_2_39 - y_2_51 + y_2_61 + y_2_62 - y_2_65
   - y_2_66 = 0
 R13: - y_2_11 + y_2_24 + y_2_25 - y_2_54 = 0
 R14: - y_2_20 - y_2_22 - y_2_44 - y_2_60 - y_2_61 - y_2_64 - y_2_69
   + y_2_70 = 0
 R15: - y_2_2 - y_2_14 - y_2_18 - y_2_25 + y_2_28 - y_2_31 - y_2_41
   - y_2_58 - y_2_67 = 0
 R16: - y_2_0 + y_2_5 - y_2_16 - y_2_26 - y_2_47 - y_2_55 - y_2_62 = 0
 R17: - y_2_5 - y_2_8 - y_2_19 - y_2_23 - y_2_24 - y_2_27 - y_2_28 - y_2_49
   - y_2_70 = -1
Bounds
 y_2_0 <= 1
 y_2_1 <= 1
 y_2_2 <= 1
 y_2_3 <= 1
 y_2_4 <= 1
 y_2_5 <= 1
 y_2_6 <= 1
 y_2_7 <= 1
 y_2_8 <= 1
 y_2_9 <= 1
 y_2_10 <= 1
 y_2_11 <= 1
 y_2_12 <= 1
 y_2_13 <= 1
 y_2_14 <= 1
 y_2_15 <= 1
 y_2_16 <= 1
 y_2_17 <= 1
 y_2_18 <= 1
 y_2_19 <= 1
 y_2_20 <= 1
 y_2_21 <= 1
 y_2_22 <= 1
 y_2_23 <= 1
 y_2_24 <= 1
 y_2_25 <= 1
 y_2_26 <= 1
 y_2_27 <= 1
 y_2_28 <= 1
 y_2_29 <= 1
 y_2_30 <= 1
 y_2_31 <= 1
 y_2_32 <= 1
 y_2_33 <= 1
 y_2_34 <= 1
 y_2_35 <= 1
 y_2_36 <= 1
 y_2_37 <= 1
 y_2_38 <= 1
 y_2_39 <= 1
 y_2_40 <= 1
 y_2_41 <= 1
 y_2_42 <= 1
 y_2_43 <= 1
 y_2_44 <= 1
 y_2_45 <= 1
 y_2_46 <= 1
 y_2_47 <= 1
 y_2_48 <= 1
 y_2_49 <= 1
 y_2_50 <= 1
 y_2_51 <= 1
 y_2_52 <= 1
 y_2_53 <= 1
 y_2_54 <= 1
 y_2_55 <= 1
 y_2_56 <= 1
 y_2_57 <= 1
 y_2_58 <= 1
 y_2_59 <= 1
 y_2_60 <= 1
 y_2_61 <= 1
 y_2_62 <= 1
 y_2_63 <= 1
 y_2_64 <= 1
 y_2_65 <= 1
 y_2_66 <= 1
 y_2_67 <= 1
 y_2_68 <= 1
 y_2_69 <= 1
 y_2_70 <= 1
End
